50
0 1 0.32 0.22
0 2 0.7 0.24
0 3 0.57 0.22
0 4 0.7 0.24
0 5 0.58 0.06
0 6 0.46 0.26
0 7 0.6 0.35
0 8 0.52 0.14
0 9 0.72 0.35
0 10 0.72 0.19
0 11 0.56 0.28
0 12 0.42 0.27
0 13 0.28 0.21
0 14 0.34 0.19
0 15 0.71 0.26
0 16 0.48 0.3
0 17 0.55 0.27
0 18 0.49 0.25
0 19 0.48 0.26
0 20 0.54 0.26
0 21 0.52 0.12
0 22 0.71 0.24
0 23 0.76 0.2
0 24 0.48 0.15
0 25 0.58 0.24
0 26 0.76 0.33
0 27 0.52 0.22
0 28 0.63 0.19
0 29 0.59 0.19
0 30 0.66 0.19
0 31 0.48 0.18
0 32 0.68 0.3
0 33 0.68 0.34
0 34 0.42 0.24
0 35 0.65 0.22
0 36 0.68 0.24
0 37 0.56 0.27
0 38 0.66 0.29
0 39 0.7 0.16
0 40 0.76 0.27
0 41 0.6 0.23
0 42 0.67 0.19
0 43 0.64 0.29
0 44 0.52 0.2
0 45 0.51 0.23
0 46 0.55 0.22
0 47 0.66 0.2
0 48 0.62 0.26
0 49 0.56 0.29
1 2 0.48 0.1
1 3 0.59 0.17
1 4 0.62 0.19
1 5 0.54 0.26
1 6 0.6 0.27
1 7 0.6 0.25
1 8 0.66 0.16
1 9 0.74 0.23
1 10 0.57 0.07
1 11 0.71 0.25
1 12 0.52 0.15
1 13 0.6 0.26
1 14 0.5 0.12
1 15 0.6 0.21
1 16 0.78 0.25
1 17 0.71 0.16
1 18 0.62 0.24
1 19 0.7 0.18
1 20 0.64 0.18
1 21 0.34 0.14
1 22 0.39 0.16
1 23 0.58 0.22
1 24 0.58 0.17
1 25 0.67 0.26
1 26 0.46 0.2
1 27 0.42 0.2
1 28 0.66 0.3
1 29 0.38 0.2
1 30 0.53 0.07
1 31 0.65 0.16
1 32 0.62 0.2
1 33 0.45 0.26
1 34 0.42 0.1
1 35 0.65 0.12
1 36 0.82 0.22
1 37 0.48 0.2
1 38 0.48 0.21
1 39 0.48 0.18
1 40 0.56 0.21
1 41 0.53 0.24
1 42 0.66 0.16
1 43 0.64 0.18
1 44 0.3 0.12
1 45 0.48 0.27
1 46 0.42 0.2
1 47 0.46 0.22
1 48 0.42 0.06
1 49 0.7 0.15
2 3 0.4 0.27
2 4 0.42 0.29
2 5 0.46 0.3
2 6 0.46 0.34
2 7 0.47 0.28
2 8 0.52 0.24
2 9 0.75 0.32
2 10 0.69 0.17
2 11 0.68 0.35
2 12 0.76 0.24
2 13 0.54 0.35
2 14 0.52 0.22
2 15 0.43 0.29
2 16 0.52 0.35
2 17 0.73 0.26
2 18 0.38 0.2
2 19 0.57 0.2
2 20 0.56 0.2
2 21 0.62 0.22
2 22 0.6 0.26
2 23 0.71 0.27
2 24 0.44 0.25
2 25 0.62 0.28
2 26 0.66 0.28
2 27 0.54 0.24
2 28 0.4 0.26
2 29 0.5 0.26
2 30 0.66 0.16
2 31 0.73 0.26
2 32 0.56 0.3
2 33 0.33 0.32
2 34 0.54 0.2
2 35 0.73 0.22
2 36 0.69 0.32
2 37 0.44 0.24
2 38 0.44 0.29
2 39 0.27 0.18
2 40 0.69 0.17
2 41 0.62 0.25
2 42 0.22 0.2
2 43 0.68 0.27
2 44 0.62 0.22
2 45 0.57 0.24
2 46 0.74 0.25
2 47 0.44 0.28
2 48 0.48 0.16
2 49 0.6 0.25
3 4 0.5 0.22
3 5 0.76 0.28
3 6 0.58 0.14
3 7 0.6 0.3
3 8 0.6 0.18
3 9 0.78 0.26
3 10 0.42 0.1
3 11 0.6 0.13
3 12 0.56 0.14
3 13 0.57 0.2
3 14 0.68 0.25
3 15 0.66 0.04
3 16 0.74 0.18
3 17 0.71 0.25
3 18 0.75 0.13
3 19 0.62 0.18
3 20 0.68 0.18
3 21 0.54 0.16
3 22 0.54 0.24
3 23 0.7 0.17
3 24 0.77 0.19
3 25 0.58 0.1
3 26 0.26 0.19
3 27 0.57 0.17
3 28 0.44 0.18
3 29 0.53 0.18
3 30 0.62 0.22
3 31 0.54 0.22
3 32 0.73 0.26
3 33 0.54 0.12
3 34 0.51 0.27
3 35 0.77 0.28
3 36 0.62 0.28
3 37 0.63 0.15
3 38 0.56 0.26
3 39 0.23 0.12
3 40 0.44 0.21
3 41 0.6 0.18
3 42 0.56 0.25
3 43 0.42 0.12
3 44 0.73 0.24
3 45 0.58 0.23
3 46 0.34 0.15
3 47 0.44 0.16
3 48 0.4 0.23
3 49 0.66 0.28
4 5 0.45 0.18
4 6 0.76 0.08
4 7 0.5 0.24
4 8 0.6 0.2
4 9 0.74 0.26
4 10 0.54 0.26
4 11 0.55 0.24
4 12 0.68 0.31
4 13 0.46 0.22
4 14 0.6 0.17
4 15 0.5 0.22
4 16 0.66 0.12
4 17 0.62 0.03
4 18 0.68 0.22
4 19 0.48 0.15
4 20 0.42 0.15
4 21 0.72 0.21
4 22 0.68 0.21
4 23 0.5 0.19
4 24 0.76 0.18
4 25 0.26 0.21
4 26 0.58 0.18
4 27 0.68 0.25
4 28 0.42 0.31
4 29 0.44 0.15
4 30 0.48 0.26
4 31 0.7 0.19
4 32 0.59 0.25
4 33 0.71 0.16
4 34 0.5 0.21
4 35 0.65 0.23
4 36 0.72 0.25
4 37 0.54 0.11
4 38 0.37 0.2
4 39 0.55 0.25
4 40 0.67 0.18
4 41 0.7 0.11
4 42 0.46 0.27
4 43 0.52 0.14
4 44 0.64 0.21
4 45 0.36 0.16
4 46 0.52 0.18
4 47 0.49 0.24
4 48 0.68 0.13
4 49 0.41 0.26
5 6 0.78 0.26
5 7 0.46 0.29
5 8 0.6 0.15
5 9 0.76 0.36
5 10 0.54 0.2
5 11 0.66 0.28
5 12 0.6 0.29
5 13 0.51 0.27
5 14 0.63 0.25
5 15 0.48 0.3
5 16 0.7 0.3
5 17 0.42 0.21
5 18 0.58 0.21
5 19 0.58 0.26
5 20 0.52 0.26
5 21 0.46 0.13
5 22 0.75 0.24
5 23 0.25 0.14
5 24 0.41 0.16
5 25 0.42 0.25
5 26 0.54 0.34
5 27 0.55 0.23
5 28 0.76 0.13
5 29 0.52 0.19
5 30 0.54 0.25
5 31 0.62 0.23
5 32 0.54 0.24
5 33 0.6 0.34
5 34 0.48 0.18
5 35 0.28 0.16
5 36 0.51 0.29
5 37 0.62 0.27
5 38 0.79 0.25
5 39 0.7 0.17
5 40 0.59 0.27
5 41 0.64 0.23
5 42 0.24 0.13
5 43 0.7 0.29
5 44 0.24 0.2
5 45 0.64 0.29
5 46 0.42 0.16
5 47 0.6 0.21
5 48 0.68 0.2
5 49 0.53 0.23
6 7 0.69 0.16
6 8 0.6 0.12
6 9 0.48 0.18
6 10 0.59 0.21
6 11 0.67 0.27
6 12 0.84 0.28
6 13 0.7 0.3
6 14 0.71 0.25
6 15 0.74 0.18
6 16 0.46 0.04
6 17 0.66 0.11
6 18 0.56 0.14
6 19 0.74 0.22
6 20 0.68 0.22
6 21 0.48 0.14
6 22 0.66 0.29
6 23 0.56 0.2
6 24 0.74 0.17
6 25 0.59 0.22
6 26 0.75 0.12
6 27 0.76 0.18
6 28 0.78 0.32
6 29 0.42 0.21
6 30 0.62 0.34
6 31 0.27 0.18
6 32 0.72 0.18
6 33 0.37 0.22
6 34 0.63 0.28
6 35 0.5 0.26
6 36 0.47 0.2
6 37 0.52 0.19
6 38 0.67 0.27
6 39 0.72 0.18
6 40 0.59 0.25
6 41 0.51 0.19
6 42 0.68 0.3
6 43 0.7 0.22
6 44 0.69 0.28
6 45 0.64 0.24
6 46 0.43 0.19
6 47 0.42 0.22
6 48 0.56 0.21
6 49 0.35 0.26
7 8 0.74 0.28
7 9 0.73 0.2
7 10 0.72 0.32
7 11 0.54 0.18
7 12 0.62 0.33
7 13 0.34 0.27
7 14 0.48 0.26
7 15 0.52 0.27
7 16 0.48 0.19
7 17 0.62 0.27
7 18 0.52 0.25
7 19 0.42 0.15
7 20 0.36 0.15
7 21 0.58 0.27
7 22 0.5 0.21
7 23 0.71 0.25
7 24 0.59 0.24
7 25 0.52 0.23
7 26 0.56 0.28
7 27 0.5 0.25
7 28 0.59 0.35
7 29 0.48 0.24
7 30 0.65 0.25
7 31 0.42 0.26
7 32 0.26 0.05
7 33 0.4 0.31
7 34 0.56 0.15
7 35 0.39 0.13
7 36 0.22 0.2
7 37 0.54 0.16
7 38 0.66 0.15
7 39 0.37 0.26
7 40 0.57 0.18
7 41 0.66 0.25
7 42 0.46 0.17
7 43 0.68 0.19
7 44 0.62 0.17
7 45 0.54 0.21
7 46 0.7 0.27
7 47 0.72 0.27
7 48 0.76 0.3
7 49 0.65 0.2
8 9 0.62 0.25
8 10 0.65 0.09
8 11 0.56 0.18
8 12 0.52 0.18
8 13 0.48 0.21
8 14 0.59 0.18
8 15 0.66 0.16
8 16 0.56 0.16
8 17 0.57 0.2
8 18 0.44 0.11
8 19 0.48 0.18
8 20 0.42 0.18
8 21 0.47 0.02
8 22 0.83 0.2
8 23 0.66 0.08
8 24 0.67 0.05
8 25 0.56 0.1
8 26 0.62 0.23
8 27 0.24 0.08
8 28 0.69 0.24
8 29 0.39 0.09
8 30 0.6 0.23
8 31 0.33 0.13
8 32 0.6 0.24
8 33 0.64 0.2
8 34 0.56 0.18
8 35 0.76 0.2
8 36 0.53 0.19
8 37 0.29 0.14
8 38 0.81 0.25
8 39 0.69 0.06
8 40 0.56 0.21
8 41 0.57 0.13
8 42 0.67 0.22
8 43 0.54 0.17
8 44 0.36 0.18
8 45 0.49 0.24
8 46 0.69 0.1
8 47 0.63 0.1
8 48 0.52 0.22
8 49 0.67 0.22
9 10 0.52 0.16
9 11 0.56 0.33
9 12 0.54 0.32
9 13 0.75 0.27
9 14 0.52 0.24
9 15 0.66 0.26
9 16 0.64 0.14
9 17 0.66 0.23
9 18 0.63 0.18
9 19 0.31 0.12
9 20 0.37 0.12
9 21 0.55 0.23
9 22 0.81 0.22
9 23 0.73 0.25
9 24 0.66 0.26
9 25 0.53 0.2
9 26 0.52 0.26
9 27 0.86 0.22
9 28 0.6 0.36
9 29 0.57 0.24
9 30 0.5 0.3
9 31 0.43 0.24
9 32 0.83 0.22
9 33 0.54 0.34
9 34 0.59 0.24
9 35 0.76 0.22
9 36 0.63 0.3
9 37 0.62 0.16
9 38 0.37 0.18
9 39 0.68 0.27
9 40 0.6 0.15
9 41 0.54 0.23
9 42 0.77 0.26
9 43 0.44 0.19
9 44 0.74 0.18
9 45 0.54 0.24
9 46 0.54 0.23
9 47 0.6 0.24
9 48 0.44 0.29
9 49 0.59 0.22
10 11 0.66 0.18
10 12 0.77 0.22
10 13 0.52 0.28
10 14 0.59 0.19
10 15 0.46 0.14
10 16 0.48 0.25
10 17 0.76 0.23
10 18 0.44 0.2
10 19 0.7 0.25
10 20 0.64 0.25
10 21 0.47 0.07
10 22 0.4 0.22
10 23 0.67 0.17
10 24 0.62 0.1
10 25 0.48 0.19
10 26 0.16 0.14
10 27 0.42 0.17
10 28 0.7 0.28
10 29 0.42 0.14
10 30 0.48 0.14
10 31 0.32 0.16
10 32 0.66 0.27
10 33 0.54 0.2
10 34 0.73 0.17
10 35 0.72 0.19
10 36 0.52 0.22
10 37 0.52 0.22
10 38 0.8 0.28
10 39 0.61 0.11
10 40 0.64 0.25
10 41 0.56 0.18
10 42 0.54 0.23
10 43 0.66 0.22
10 44 0.72 0.19
10 45 0.55 0.3
10 46 0.69 0.17
10 47 0.61 0.15
10 48 0.79 0.13
10 49 0.65 0.22
11 12 0.33 0.26
11 13 0.56 0.23
11 14 0.61 0.29
11 15 0.46 0.17
11 16 0.56 0.27
11 17 0.56 0.21
11 18 0.46 0.17
11 19 0.35 0.21
11 20 0.41 0.21
11 21 0.6 0.16
11 22 0.8 0.18
11 23 0.74 0.14
11 24 0.81 0.13
11 25 0.57 0.23
11 26 0.58 0.22
11 27 0.32 0.19
11 28 0.48 0.3
11 29 0.78 0.09
11 30 0.76 0.3
11 31 0.57 0.13
11 32 0.28 0.13
11 33 0.7 0.25
11 34 0.62 0.16
11 35 0.54 0.18
11 36 0.38 0.19
11 37 0.73 0.17
11 38 0.36 0.27
11 39 0.78 0.2
11 40 0.64 0.21
11 41 0.66 0.13
11 42 0.5 0.22
11 43 0.71 0.19
11 44 0.5 0.22
11 45 0.64 0.27
11 46 0.71 0.12
11 47 0.25 0.18
11 48 0.55 0.31
11 49 0.66 0.21
12 13 0.7 0.32
12 14 0.65 0.21
12 15 0.7 0.18
12 16 0.38 0.32
12 17 0.76 0.29
12 18 0.71 0.26
12 19 0.68 0.24
12 20 0.66 0.24
12 21 0.56 0.16
12 22 0.58 0.14
12 23 0.69 0.23
12 24 0.68 0.19
12 25 0.62 0.24
12 26 0.82 0.21
12 27 0.65 0.26
12 28 0.58 0.28
12 29 0.56 0.18
12 30 0.71 0.08
12 31 0.57 0.21
12 32 0.52 0.28
12 33 0.58 0.15
12 34 0.64 0.22
12 35 0.78 0.2
12 36 0.71 0.26
12 37 0.6 0.26
12 38 0.56 0.29
12 39 0.61 0.12
12 40 0.56 0.27
12 41 0.66 0.22
12 42 0.54 0.24
12 43 0.86 0.26
12 44 0.37 0.18
12 45 0.74 0.35
12 46 0.76 0.21
12 47 0.58 0.24
12 48 0.56 0.21
12 49 0.63 0.26
13 14 0.49 0.24
13 15 0.56 0.16
13 16 0.64 0.31
13 17 0.47 0.22
13 18 0.34 0.16
13 19 0.47 0.15
13 20 0.53 0.15
13 21 0.58 0.21
13 22 0.54 0.24
13 23 0.66 0.13
13 24 0.76 0.18
13 25 0.69 0.22
13 26 0.56 0.2
13 27 0.24 0.18
13 28 0.35 0.18
13 29 0.58 0.14
13 30 0.44 0.3
13 31 0.62 0.17
13 32 0.6 0.25
13 33 0.6 0.24
13 34 0.45 0.27
13 35 0.68 0.25
13 36 0.56 0.23
13 37 0.68 0.11
13 38 0.38 0.22
13 39 0.69 0.25
13 40 0.48 0.18
13 41 0.5 0.14
13 42 0.71 0.25
13 43 0.44 0.08
13 44 0.63 0.21
13 45 0.6 0.19
13 46 0.37 0.11
13 47 0.38 0.13
13 48 0.77 0.2
13 49 0.7 0.25
14 15 0.37 0.21
14 16 0.69 0.23
14 17 0.21 0.14
14 18 0.15 0.12
14 19 0.47 0.12
14 20 0.41 0.12
14 21 0.61 0.16
14 22 0.62 0.22
14 23 0.42 0.19
14 24 0.58 0.19
14 25 0.57 0.18
14 26 0.73 0.26
14 27 0.69 0.16
14 28 0.39 0.35
14 29 0.51 0.2
14 30 0.58 0.14
14 31 0.62 0.24
14 32 0.74 0.22
14 33 0.63 0.28
14 34 0.51 0.22
14 35 0.73 0.22
14 36 0.42 0.3
14 37 0.5 0.16
14 38 0.37 0.22
14 39 0.72 0.2
14 40 0.59 0.15
14 41 0.59 0.22
14 42 0.41 0.26
14 43 0.49 0.19
14 44 0.49 0.18
14 45 0.49 0.26
14 46 0.58 0.17
14 47 0.64 0.24
14 48 0.28 0.18
14 49 0.54 0.26
15 16 0.7 0.22
15 17 0.48 0.22
15 18 0.22 0.09
15 19 0.5 0.14
15 20 0.44 0.14
15 21 0.26 0.18
15 22 0.37 0.24
15 23 0.62 0.16
15 24 0.6 0.21
15 25 0.6 0.06
15 26 0.62 0.15
15 27 0.46 0.13
15 28 0.47 0.22
15 29 0.57 0.17
15 30 0.56 0.26
15 31 0.62 0.21
15 32 0.58 0.24
15 33 0.56 0.08
15 34 0.64 0.23
15 35 0.66 0.24
15 36 0.68 0.24
15 37 0.5 0.11
15 38 0.46 0.22
15 39 0.7 0.16
15 40 0.54 0.17
15 41 0.66 0.14
15 42 0.4 0.21
15 43 0.56 0.08
15 44 0.56 0.2
15 45 0.64 0.19
15 46 0.45 0.14
15 47 0.62 0.2
15 48 0.65 0.2
15 49 0.56 0.25
16 17 0.89 0.09
16 18 0.54 0.18
16 19 0.34 0.24
16 20 0.28 0.24
16 21 0.44 0.18
16 22 0.56 0.27
16 23 0.76 0.23
16 24 0.82 0.21
16 25 0.44 0.26
16 26 0.62 0.16
16 27 0.78 0.22
16 28 0.46 0.36
16 29 0.54 0.18
16 30 0.44 0.31
16 31 0.54 0.22
16 32 0.28 0.14
16 33 0.48 0.26
16 34 0.59 0.24
16 35 0.54 0.22
16 36 0.58 0.16
16 37 0.6 0.23
16 38 0.42 0.28
16 39 0.54 0.22
16 40 0.51 0.25
16 41 0.64 0.17
16 42 0.51 0.26
16 43 0.51 0.23
16 44 0.75 0.26
16 45 0.56 0.22
16 46 0.77 0.21
16 47 0.44 0.26
16 48 0.69 0.19
16 49 0.25 0.22
17 18 0.36 0.2
17 19 0.6 0.18
17 20 0.61 0.18
17 21 0.58 0.18
17 22 0.53 0.18
17 23 0.61 0.17
17 24 0.37 0.15
17 25 0.7 0.24
17 26 0.83 0.21
17 27 0.48 0.22
17 28 0.6 0.31
17 29 0.39 0.12
17 30 0.63 0.23
17 31 0.6 0.16
17 32 0.62 0.23
17 33 0.76 0.19
17 34 0.72 0.18
17 35 0.7 0.2
17 36 0.6 0.22
17 37 0.29 0.14
17 38 0.58 0.19
17 39 0.69 0.22
17 40 0.5 0.16
17 41 0.44 0.08
17 42 0.62 0.24
17 43 0.53 0.14
17 44 0.41 0.22
17 45 0.4 0.13
17 46 0.37 0.15
17 47 0.64 0.23
17 48 0.49 0.1
17 49 0.71 0.23
18 19 0.32 0.17
18 20 0.26 0.17
18 21 0.46 0.13
18 22 0.59 0.22
18 23 0.57 0.07
18 24 0.55 0.12
18 25 0.42 0.15
18 26 0.58 0.22
18 27 0.58 0.04
18 28 0.5 0.23
18 29 0.5 0.08
18 30 0.56 0.26
18 31 0.52 0.12
18 32 0.74 0.2
18 33 0.68 0.16
18 34 0.66 0.14
18 35 0.82 0.16
18 36 0.53 0.18
18 37 0.4 0.13
18 38 0.52 0.22
18 39 0.65 0.17
18 40 0.57 0.2
18 41 0.44 0.12
18 42 0.56 0.2
18 43 0.34 0.1
18 44 0.34 0.2
18 45 0.5 0.16
18 46 0.67 0.05
18 47 0.71 0.2
18 48 0.43 0.22
18 49 0.69 0.16
19 20 0.06 0.0
19 21 0.36 0.19
19 22 0.5 0.1
19 23 0.42 0.16
19 24 0.48 0.16
19 25 0.22 0.08
19 26 0.54 0.14
19 27 0.62 0.18
19 28 0.6 0.24
19 29 0.48 0.12
19 30 0.54 0.22
19 31 0.74 0.12
19 32 0.52 0.1
19 33 0.48 0.22
19 34 0.6 0.12
19 35 0.58 0.1
19 36 0.64 0.18
19 37 0.38 0.04
19 38 0.68 0.15
19 39 0.43 0.23
19 40 0.59 0.03
19 41 0.51 0.11
19 42 0.52 0.14
19 43 0.47 0.07
19 44 0.49 0.06
19 45 0.58 0.14
19 46 0.69 0.15
19 47 0.6 0.12
19 48 0.75 0.18
19 49 0.52 0.17
20 21 0.3 0.19
20 22 0.56 0.1
20 23 0.48 0.16
20 24 0.54 0.16
20 25 0.16 0.08
20 26 0.48 0.14
20 27 0.59 0.18
20 28 0.54 0.24
20 29 0.42 0.12
20 30 0.6 0.22
20 31 0.69 0.12
20 32 0.48 0.1
20 33 0.42 0.22
20 34 0.54 0.12
20 35 0.64 0.1
20 36 0.58 0.18
20 37 0.32 0.04
20 38 0.62 0.15
20 39 0.45 0.23
20 40 0.53 0.03
20 41 0.57 0.11
20 42 0.58 0.14
20 43 0.46 0.07
20 44 0.54 0.06
20 45 0.52 0.14
20 46 0.72 0.15
20 47 0.66 0.12
20 48 0.69 0.18
20 49 0.53 0.17
21 22 0.44 0.2
21 23 0.55 0.1
21 24 0.76 0.03
21 25 0.46 0.12
21 26 0.63 0.21
21 27 0.34 0.1
21 28 0.62 0.26
21 29 0.56 0.07
21 30 0.66 0.21
21 31 0.75 0.11
21 32 0.32 0.22
21 33 0.56 0.22
21 34 0.7 0.2
21 35 0.4 0.2
21 36 0.58 0.17
21 37 0.46 0.15
21 38 0.5 0.26
21 39 0.64 0.04
21 40 0.66 0.19
21 41 0.59 0.11
21 42 0.66 0.2
21 43 0.3 0.17
21 44 0.52 0.16
21 45 0.46 0.23
21 46 0.63 0.1
21 47 0.4 0.08
21 48 0.5 0.2
21 49 0.48 0.2
22 23 0.5 0.19
22 24 0.76 0.18
22 25 0.72 0.18
22 26 0.56 0.22
22 27 0.76 0.2
22 28 0.81 0.14
22 29 0.44 0.14
22 30 0.54 0.2
22 31 0.65 0.18
22 32 0.56 0.16
22 33 0.57 0.22
22 34 0.65 0.1
22 35 0.5 0.08
22 36 0.56 0.24
22 37 0.54 0.14
22 38 0.76 0.17
22 39 0.74 0.24
22 40 0.52 0.13
22 41 0.75 0.1
22 42 0.55 0.12
22 43 0.58 0.16
22 44 0.68 0.04
22 45 0.52 0.23
22 46 0.62 0.17
22 47 0.55 0.22
22 48 0.75 0.22
22 49 0.31 0.15
23 24 0.49 0.09
23 25 0.64 0.18
23 26 0.51 0.23
23 27 0.42 0.09
23 28 0.56 0.16
23 29 0.35 0.05
23 30 0.66 0.29
23 31 0.61 0.09
23 32 0.79 0.2
23 33 0.38 0.21
23 34 0.64 0.19
23 35 0.53 0.21
23 36 0.5 0.15
23 37 0.45 0.13
23 38 0.59 0.24
23 39 0.65 0.14
23 40 0.42 0.13
23 41 0.79 0.09
23 42 0.49 0.25
23 43 0.48 0.15
23 44 0.32 0.21
23 45 0.42 0.23
23 46 0.36 0.02
23 47 0.6 0.17
23 48 0.66 0.27
23 49 0.6 0.23
24 25 0.54 0.15
24 26 0.63 0.22
24 27 0.76 0.13
24 28 0.72 0.25
24 29 0.32 0.04
24 30 0.77 0.24
24 31 0.59 0.08
24 32 0.7 0.25
24 33 0.64 0.2
24 34 0.64 0.23
24 35 0.69 0.23
24 36 0.58 0.14
24 37 0.38 0.12
24 38 0.69 0.23
24 39 0.54 0.07
24 40 0.84 0.16
24 41 0.54 0.08
24 42 0.6 0.2
24 43 0.52 0.14
24 44 0.49 0.19
24 45 0.58 0.22
24 46 0.62 0.07
24 47 0.56 0.08
24 48 0.86 0.23
24 49 0.7 0.2
25 26 0.32 0.21
25 27 0.6 0.18
25 28 0.61 0.28
25 29 0.31 0.19
25 30 0.64 0.3
25 31 0.58 0.2
25 32 0.64 0.18
25 33 0.58 0.14
25 34 0.68 0.2
25 35 0.56 0.18
25 36 0.6 0.18
25 37 0.41 0.12
25 38 0.46 0.23
25 39 0.61 0.16
25 40 0.59 0.11
25 41 0.44 0.19
25 42 0.59 0.22
25 43 0.3 0.14
25 44 0.38 0.14
25 45 0.46 0.22
25 46 0.61 0.2
25 47 0.53 0.2
25 48 0.66 0.26
25 49 0.5 0.21
26 27 0.58 0.26
26 28 0.55 0.22
26 29 0.58 0.18
26 30 0.58 0.27
26 31 0.48 0.22
26 32 0.68 0.24
26 33 0.62 0.23
26 34 0.77 0.26
26 35 0.62 0.24
26 36 0.4 0.28
26 37 0.68 0.15
26 38 0.64 0.26
26 39 0.49 0.25
26 40 0.7 0.17
26 41 0.64 0.18
26 42 0.48 0.28
26 43 0.62 0.12
26 44 0.7 0.2
26 45 0.71 0.23
26 46 0.6 0.21
26 47 0.7 0.26
26 48 0.66 0.24
26 49 0.58 0.31
27 28 0.59 0.25
27 29 0.63 0.1
27 30 0.44 0.24
27 31 0.57 0.14
27 32 0.6 0.2
27 33 0.4 0.12
27 34 0.6 0.1
27 35 0.63 0.12
27 36 0.7 0.2
27 37 0.53 0.14
27 38 0.62 0.21
27 39 0.5 0.14
27 40 0.32 0.21
27 41 0.64 0.14
27 42 0.68 0.16
27 43 0.44 0.14
27 44 0.6 0.16
27 45 0.58 0.2
27 46 0.45 0.07
27 47 0.52 0.18
27 48 0.59 0.26
27 49 0.58 0.15
28 29 0.48 0.21
28 30 0.64 0.34
28 31 0.51 0.25
28 32 0.54 0.3
28 33 0.46 0.3
28 34 0.7 0.24
28 35 0.8 0.22
28 36 0.61 0.22
28 37 0.58 0.2
28 38 0.5 0.31
28 39 0.42 0.3
28 40 0.56 0.27
28 41 0.75 0.23
28 42 0.62 0.26
28 43 0.61 0.17
28 44 0.84 0.18
28 45 0.77 0.28
28 46 0.63 0.18
28 47 0.66 0.31
28 48 0.64 0.29
28 49 0.5 0.29
29 30 0.86 0.24
29 31 0.27 0.04
29 32 0.66 0.22
29 33 0.68 0.16
29 34 0.58 0.2
29 35 0.6 0.2
29 36 0.47 0.1
29 37 0.1 0.08
29 38 0.62 0.19
29 39 0.3 0.11
29 40 0.52 0.12
29 41 0.51 0.04
29 42 0.28 0.24
29 43 0.46 0.1
29 44 0.56 0.16
29 45 0.3 0.18
29 46 0.3 0.03
29 47 0.56 0.12
29 48 0.63 0.22
29 49 0.44 0.24
30 31 0.74 0.23
30 32 0.52 0.2
30 33 0.62 0.23
30 34 0.56 0.14
30 35 0.26 0.12
30 36 0.78 0.29
30 37 0.76 0.26
30 38 0.64 0.21
30 39 0.8 0.2
30 40 0.58 0.24
30 41 0.66 0.28
30 42 0.61 0.16
30 43 0.56 0.25
30 44 0.34 0.16
30 45 0.61 0.27
30 46 0.69 0.27
30 47 0.58 0.28
30 48 0.71 0.13
30 49 0.5 0.18
31 32 0.45 0.22
31 33 0.58 0.2
31 34 0.57 0.24
31 35 0.62 0.22
31 36 0.2 0.06
31 37 0.37 0.12
31 38 0.67 0.23
31 39 0.57 0.15
31 40 0.32 0.09
31 41 0.24 0.08
31 42 0.52 0.26
31 43 0.51 0.14
31 44 0.44 0.18
31 45 0.57 0.22
31 46 0.57 0.07
31 47 0.56 0.16
31 48 0.66 0.22
31 49 0.34 0.25
32 33 0.53 0.26
32 34 0.7 0.1
32 35 0.26 0.08
32 36 0.48 0.25
32 37 0.56 0.14
32 38 0.64 0.17
32 39 0.5 0.26
32 40 0.62 0.13
32 41 0.64 0.21
32 42 0.72 0.12
32 43 0.58 0.17
32 44 0.78 0.12
32 45 0.74 0.23
32 46 0.7 0.22
32 47 0.53 0.22
32 48 0.68 0.26
32 49 0.53 0.15
33 34 0.26 0.16
33 35 0.4 0.18
33 36 0.38 0.26
33 37 0.68 0.19
33 38 0.72 0.27
33 39 0.54 0.24
33 40 0.56 0.2
33 41 0.61 0.12
33 42 0.55 0.22
33 43 0.79 0.16
33 44 0.52 0.22
33 45 0.63 0.27
33 46 0.74 0.19
33 47 0.48 0.28
33 48 0.68 0.28
33 49 0.3 0.2
34 35 0.44 0.02
34 36 0.55 0.3
34 37 0.58 0.16
34 38 0.58 0.11
34 39 0.28 0.22
34 40 0.34 0.15
34 41 0.35 0.16
34 42 0.32 0.06
34 43 0.66 0.19
34 44 0.57 0.06
34 45 0.66 0.17
34 46 0.66 0.17
34 47 0.68 0.17
34 48 0.74 0.16
34 49 0.34 0.05
35 36 0.61 0.28
35 37 0.5 0.14
35 38 0.51 0.09
35 39 0.54 0.24
35 40 0.6 0.13
35 41 0.67 0.18
35 42 0.52 0.04
35 43 0.57 0.17
35 44 0.52 0.04
35 45 0.6 0.15
35 46 0.69 0.19
35 47 0.73 0.16
35 48 0.45 0.18
35 49 0.7 0.07
36 37 0.57 0.18
36 38 0.71 0.29
36 39 0.5 0.21
36 40 0.52 0.15
36 41 0.44 0.14
36 42 0.68 0.32
36 43 0.56 0.2
36 44 0.52 0.24
36 45 0.55 0.28
36 46 0.77 0.13
36 47 0.63 0.22
36 48 0.63 0.28
36 49 0.54 0.31
37 38 0.52 0.11
37 39 0.4 0.19
37 40 0.52 0.07
37 41 0.61 0.09
37 42 0.38 0.18
37 43 0.36 0.03
37 44 0.65 0.1
37 45 0.2 0.1
37 46 0.4 0.11
37 47 0.52 0.14
37 48 0.58 0.14
37 49 0.54 0.21
38 39 0.71 0.3
38 40 0.66 0.18
38 41 0.54 0.2
38 42 0.57 0.13
38 43 0.5 0.14
38 44 0.78 0.13
38 45 0.34 0.06
38 46 0.5 0.22
38 47 0.61 0.25
38 48 0.42 0.21
38 49 0.58 0.16
39 40 0.42 0.2
39 41 0.6 0.15
39 42 0.46 0.24
39 43 0.65 0.21
39 44 0.5 0.2
39 45 0.6 0.27
39 46 0.56 0.14
39 47 0.67 0.12
39 48 0.58 0.24
39 49 0.62 0.24
40 41 0.56 0.08
40 42 0.55 0.17
40 43 0.38 0.1
40 44 0.64 0.09
40 45 0.32 0.17
40 46 0.5 0.15
40 47 0.82 0.15
40 48 0.4 0.21
40 49 0.26 0.17
41 42 0.65 0.22
41 43 0.62 0.06
41 44 0.64 0.14
41 45 0.46 0.17
41 46 0.43 0.07
41 47 0.67 0.16
41 48 0.42 0.18
41 49 0.58 0.21
42 43 0.46 0.21
42 44 0.4 0.08
42 45 0.52 0.19
42 46 0.58 0.23
42 47 0.51 0.12
42 48 0.44 0.22
42 49 0.66 0.11
43 44 0.62 0.13
43 45 0.16 0.11
43 46 0.76 0.13
43 47 0.46 0.17
43 48 0.38 0.12
43 49 0.6 0.24
44 45 0.71 0.19
44 46 0.52 0.19
44 47 0.75 0.18
44 48 0.58 0.18
44 49 0.7 0.11
45 46 0.6 0.21
45 47 0.5 0.24
45 48 0.44 0.23
45 49 0.44 0.14
46 47 0.46 0.15
46 48 0.55 0.25
46 49 0.52 0.21
47 48 0.8 0.28
47 49 0.68 0.12
48 49 0.44 0.18
